NAME : Test primer - ipanasiuk
CAPACITY : 2
NODE_COORD_SECTION 
n0 235 136
n1 334 127
n2 242 21
n3 452 301
n4 251 378
DEMAND_SECTION 
n0 0
n1 1 
n2 1 
n3 1 
n4 1
DEPOT_SECTION
TIME_SECTION
n0 n1 30
n0 n2 25
n0 n3 50
n0 n4 60
n1 n2 80
n1 n3 32
n1 n4 48
n2 n3 51
n2 n4 13
n3 n4 46
